#######################



#######################
Set parameter TimeLimit to value 300
Set parameter SoftMemLimit to value 125
Set parameter LogFile to value 1003-MIPFocus0-Presolve1-TimeLimit300-k16x240-5.log
Set parameter Presolve to value 1
Set parameter Seed to value 5
Using license file /opt/gurobi/gurobi.lic

Gurobi Optimizer version 10.0.3 build v10.0.3rc0 (linux64)
Copyright (c) 2023, Gurobi Optimization, LLC

Read MPS format model from file /miplib2010/k16x240.mps.bz2
Reading time = 0.01 seconds
k16x240: 256 rows, 480 columns, 960 nonzeros

CPU model: Intel(R) Xeon(R) E-2388G CPU @ 3.20GHz, instruction set [SSE2|AVX|AVX2|AVX512]
Thread count: 8 physical cores, 16 logical processors, using up to 16 threads

Optimize a model with 256 rows, 480 columns and 960 nonzeros
Model fingerprint: 0x4e80885f
Variable types: 240 continuous, 240 integer (240 binary)
Coefficient statistics:
  Matrix range     [1e+00, 1e+03]
  Objective range  [1e+00, 1e+03]
  Bounds range     [1e+00, 1e+03]
  RHS range        [4e+00, 4e+02]
Found heuristic solution: objective 27987.000000
Presolve time: 0.00s
Presolved: 256 rows, 480 columns, 960 nonzeros
Variable types: 240 continuous, 240 integer (240 binary)

Root relaxation: objective 2.769838e+03, 51 iterations, 0.00 seconds (0.00 work units)

    Nodes    |    Current Node    |     Objective Bounds      |     Work
 Expl Unexpl |  Obj  Depth IntInf | Incumbent    BestBd   Gap | It/Node Time

     0     0 2769.83800    0   14 27987.0000 2769.83800  90.1%     -    0s
H    0     0                    11359.000000 2769.83800  75.6%     -    0s
H    0     0                    11195.000000 2769.83800  75.3%     -    0s
H    0     0                    11074.000000 8084.69631  27.0%     -    0s
     0     0 8084.69631    0   26 11074.0000 8084.69631  27.0%     -    0s
H    0     0                    10916.000000 8084.69631  25.9%     -    0s
     0     0 8528.16906    0   24 10916.0000 8528.16906  21.9%     -    0s
H    0     0                    10826.000000 8539.15185  21.1%     -    0s
     0     0 8539.15185    0   34 10826.0000 8539.15185  21.1%     -    0s
     0     0 8548.03675    0   29 10826.0000 8548.03675  21.0%     -    0s
H    0     0                    10779.000000 8733.37944  19.0%     -    0s
     0     0 8733.37944    0   34 10779.0000 8733.37944  19.0%     -    0s
H    0     0                    10717.000000 8733.37944  18.5%     -    0s
     0     0 8793.89382    0   28 10717.0000 8793.89382  17.9%     -    0s
     0     0 8813.48501    0   28 10717.0000 8813.48501  17.8%     -    0s
     0     0 8817.87868    0   34 10717.0000 8817.87868  17.7%     -    0s
     0     0 8887.63171    0   38 10717.0000 8887.63171  17.1%     -    0s
     0     0 8906.49530    0   38 10717.0000 8906.49530  16.9%     -    0s
     0     0 8933.75069    0   37 10717.0000 8933.75069  16.6%     -    0s
     0     0 8940.45384    0   36 10717.0000 8940.45384  16.6%     -    0s
     0     0 9030.57356    0   23 10717.0000 9030.57356  15.7%     -    0s
     0     0 9042.85016    0   33 10717.0000 9042.85016  15.6%     -    0s
     0     0 9048.89948    0   32 10717.0000 9048.89948  15.6%     -    0s
     0     0 9094.80004    0   38 10717.0000 9094.80004  15.1%     -    0s
     0     0 9094.80004    0   38 10717.0000 9094.80004  15.1%     -    0s
     0     2 9094.80004    0   38 10717.0000 9094.80004  15.1%     -    0s
H   64    80                    10678.000000 9293.64507  13.0%  37.1    0s
H  762   586                    10674.000000 9293.67884  12.9%  17.2    0s
 31147 12639 10463.3240   32   13 10674.0000 9996.72097  6.35%  28.8    5s
 71059 19247 10377.1664   25   19 10674.0000 10177.3472  4.65%  30.4   10s
 107721 18405     cutoff   28      10674.0000 10317.2282  3.34%  31.4   15s
 145848  8854     cutoff   35      10674.0000 10474.1009  1.87%  31.3   20s

Cutting planes:
  Gomory: 1
  Lift-and-project: 18
  Cover: 64
  Implied bound: 23
  MIR: 182
  Flow cover: 286
  Flow path: 38
  Inf proof: 1
  Zero half: 17
  Network: 52
  Relax-and-lift: 1

Explored 162437 nodes (4923725 simplex iterations) in 21.59 seconds (25.41 work units)
Thread count was 16 (of 16 available processors)

Solution count 10: 10674 10678 10717 ... 27987

Optimal solution found (tolerance 1.00e-04)
Best objective 1.067400000000e+04, best bound 1.067400000000e+04, gap 0.0000%
